Linux optc-01-06 4.15.0-58-generic #64-Ubuntu SMP Tue Aug 6 11:12:41 UTC 2019 x86_64 x86_64 x86_64 GNU/Linux

top - 00:33:34 up 1 day, 14:34,  0 users,  load average: 0,51, 0,88, 0,96
Tasks: 290 gesamt,   1 laufend, 149 schlafend,   0 gestoppt,   0 Zombie
%CPU(s):  7,0 be,  0,4 sy,  0,0 ni, 92,6 un,  0,0 wa,  0,0 hi,  0,0 si,  0,0 st
KiB Spch : 97514992 gesamt, 94860120 frei,   647584 belegt,  2007292 Puff/Cache
KiB Swap:  8388604 gesamt,  8388604 frei,        0 belegt. 96125536 verfü Spch 

  PID USER      PR  NI    VIRT    RES    SHR S  %CPU %MEM     ZEIT+ BEFEHL
15295 bzfhende  20   0   52664   4116   3368 R   6,2  0,0   0:00.01 top
    1 root      20   0  233836   9424   6732 S   0,0  0,0   0:12.75 systemd
    2 root      20   0       0      0      0 S   0,0  0,0   0:00.14 kthreadd
    3 root      20   0       0      0      0 I   0,0  0,0   0:00.00 kworker/0:0
    4 root       0 -20       0      0      0 I   0,0  0,0   0:00.00 kworker/0:+
    6 root      20   0       0      0      0 I   0,0  0,0   0:00.00 kworker/u3+
    7 root       0 -20       0      0      0 I   0,0  0,0   0:00.00 mm_percpu_+
    8 root      20   0       0      0      0 S   0,0  0,0   0:00.00 ksoftirqd/0

hard time limit: 04:10:00
hard mem limit: 55100

SLURM jobID: 2182743

@01 /nfs/optimi/kombadon/IP/coral/neos-631710.mps.gz ===========
-----------------------------
Fr 23. Aug 00:33:34 CEST 2019
-----------------------------
@03 1566513214
@05 7200
SCIP version 6.0.0 [precision: 8 byte] [memory: block] [mode: optimized] [LP solver: CPLEX 12.8.0.0] [GitHash: 41ab6e0014]
Copyright (C) 2002-2018 Konrad-Zuse-Zentrum fuer Informationstechnik Berlin (ZIB)

External codes: 
  Readline 7.0         GNU library for command line editing (gnu.org/s/readline)
  CPLEX 12.8.0.0       Linear Programming Solver developed by IBM (www.cplex.com)
  CppAD 20180000.0     Algorithmic Differentiation of C++ algorithms developed by B. Bell (www.coin-or.org/CppAD)
  ZLIB 1.2.11          General purpose compression library by J. Gailly and M. Adler (zlib.net)
  GMP 6.1.2            GNU Multiple Precision Arithmetic Library developed by T. Granlund (gmplib.org)
  bliss 0.73p          Computing Graph Automorphism Groups by T. Junttila and P. Kaski (http://www.tcs.hut.fi/Software/bliss/)

user parameter file <scip.set> not found - using default parameters

SCIP> 
SCIP> set load /home/optimi/bzfhende/opti/scip-opti/check/../settings/enable_treeeprofile.set
loaded parameter file </home/optimi/bzfhende/opti/scip-opti/check/../settings/enable_treeprofile.set>
SCIP> set misc referencevalue 203
misc/referencevalue = 203
SCIP> set limits time 7200
limits/time = 7200
SCIP> set limits nodes 2100000000
limits/nodes = 2100000000
SCIP> set limits memory 50000
limits/memory = 50000
SCIP> set lp advanced threads 1
lp/threads = 1
SCIP> set timing clocktype 1
timing/clocktype = 1
SCIP> set display freq 10000
display/freq = 10000
SCIP> set memory savefac 1.0
memory/savefac = 1
SCIP> set save /home/optimi/bzfhende/opti/scip-opti/check/treesize.estimation.jouurnal.3/bzfhende.MMMc.279_neos-631710.scip.M640.enable_treeprofile.set
saved parameter file </home/optimi/bzfhende/opti/scip-opti/check/treesize.estimation.journal.3/bzfhende.MMMc.279_neos-631710.scip.M640.enable_treeprofile.set>
SCIP> read /nfs/optimi/kombadon/IP/coral/neos-631710.mps.gz

read problem </nfs/optimi/kombadon/IP/coral/neos-631710.mps.gz>
============

original problem has 167056 variables (167056 bin, 0 int, 0 impl, 0 cont) and 169576 constraints
SCIP> display parameters

number of parameters = 2448
non-default parameter settings:
display/freq = 10000
limits/time = 7200
limits/nodes = 2100000000
limits/memory = 50000
lp/threads = 1
memory/savefac = 1
misc/referencevalue = 203
presolving/maxrestarts = 0
estimates/profile/enabled = TRUE
estimates/profile/maxdepthfactor = 10
estimates/profile/freq = 0

SCIP> optimize

Activating tree profile data collection
presolving:
(round 1, exhaustive) 0 del vars, 0 del conss, 0 add conss, 0 chg bounds, 0 chg sides, 0 chg coeffs, 169576 upgd conss, 0 impls, 251698 clqs
   (61.2s) probing: 1000/167056 (0.6%) - 0 fixings, 0 aggregations, 282650 implications, 0 bound changes
   (61.3s) probing: 1001/167056 (0.6%) - 0 fixings, 0 aggregations, 283178 implications, 0 bound changes
   (61.3s) probing aborted: 1000/1000 successive useless probings
presolving (2 rounds: 2 fast, 2 medium, 2 exhaustive):
 0 deleted vars, 1 deleted constraints, 2 added constraints, 0 tightened bounds, 0 added holes, 2 changed sides, 248 changed coefficients
 0 implications, 537101 cliques
presolved problem has 167056 variables (167056 bin, 0 int, 0 impl, 0 cont) and 169577 constraints
    555 constraints of type <knapsack>
 169022 constraints of type <setppc>
transformed objective value is always integral (scale: 1)
Presolving Time: 61.01

 time | node  | left  |LP iter|LP it/n| mem |mdpt |frac |vars |cons |cols |rows |cuts |confs|strbr|  dualbound   | primalbound  |  gap   
Q67.7s|     1 |     0 |     0 |     - |1377M|   0 |   - | 167k| 169k| 167k| 169k|   0 |   0 |   0 | 0.000000e+00 | 2.150000e+02 |    Inf 
  325s|     1 |     0 | 30299 |     - |1452M|   0 |1810 | 167k| 168k| 167k| 169k|   0 |  17 |   0 | 1.882500e+02 | 2.150000e+02 |  14.21%
  743s|     1 |     0 | 55052 |     - |1491M|   0 |1081 | 167k| 168k| 167k| 169k| 109 |  18 |   0 | 1.882500e+02 | 2.150000e+02 |  14.21%
 1014s|     1 |     0 | 72871 |     - |1516M|   0 |1125 | 167k| 168k| 167k| 169k| 210 |  19 |   0 | 1.882500e+02 | 2.150000e+02 |  14.21%
 1208s|     1 |     0 | 88148 |     - |1556M|   0 |1100 | 167k| 168k| 167k| 169k| 316 |  21 |   0 | 1.882500e+02 | 2.150000e+02 |  14.21%
 1368s|     1 |     0 | 96922 |     - |1577M|   0 |1046 | 167k| 168k| 167k| 170k| 429 |  22 |   0 | 1.882500e+02 | 2.150000e+02 |  14.21%
 1507s|     1 |     0 |103721 |     - |1617M|   0 | 936 | 167k| 168k| 167k| 170k| 572 |  23 |   0 | 1.882500e+02 | 2.150000e+02 |  14.21%
 1652s|     1 |     0 |114046 |     - |1648M|   0 |1106 | 167k| 168k| 167k| 170k| 694 |  23 |   0 | 1.882500e+02 | 2.150000e+02 |  14.21%
 1813s|     1 |     0 |121473 |     - |1668M|   0 | 989 | 167k| 168k| 167k| 170k| 813 |  25 |   0 | 1.882500e+02 | 2.150000e+02 |  14.21%
 1971s|     1 |     0 |128567 |     - |1715M|   0 | 965 | 167k| 168k| 167k| 170k| 966 |  27 |   0 | 1.882500e+02 | 2.150000e+02 |  14.21%
 2071s|     1 |     0 |134354 |     - |1738M|   0 | 968 | 167k| 168k| 167k| 170k|1086 |  29 |   0 | 1.882500e+02 | 2.150000e+02 |  14.21%
 2166s|     1 |     0 |140163 |     - |1763M|   0 | 916 | 167k| 168k| 167k| 170k|1222 |  29 |   0 | 1.882500e+02 | 2.150000e+02 |  14.21%
 2245s|     1 |     0 |147224 |     - |1796M|   0 | 939 | 167k| 168k| 167k| 170k|1356 |  31 |   0 | 1.882500e+02 | 2.150000e+02 |  14.21%
SCIP nodes: 1 Estimation: -1
 2683s|     1 |     2 |164522 |     - |1817M|   0 | 939 | 167k| 168k| 167k| 170k|1356 |  32 |  20 | 1.882500e+02 | 2.150000e+02 |  14.21%
   (2688.0s) symmetry computation started: requiring (bin +, int -, cont -), (fixed: bin -, int +, cont -)
   (2688.9s) symmetry computation finished: 24 generators found (max: 383, log10 of symmetry group size: 12.0)
   (2688.9s) turning off presolver <domcol> for remaining computations in order to avoid conflicts
SCIP nodes: 2 Estimation: -1
Report 1
Time Elapsed: 2879.10
  Tree Data        : 3 nodes (2 visited, 1 inner, 1 leaves, 1 open), progress: 0.5000
Tree Estimation    :       estim       value       trend  resolution      smooth
  wbe              :          -1           -           -           -           -
  tree profile     :          -1           -           -           -           -
  gap              :           1     0.87558     0.87558           1           1
  progress         :           3     0.50000     0.50000           1           3
  leaf-frequency   :           2     0.25000     0.75000           1           2
  ssg              :           3     0.50000    -0.50000           1           3
  open-nodes       :           4     1.00000     1.00000           1           4
End of Report 1

SCIP nodes: 4 Estimation: -1
SCIP nodes: 8 Estimation: -1
SCIP nodes: 16 Estimation: -1
SCIP nodes: 32 Estimation: -1
L3810s|    34 |    33 |318044 |5176.4 |2317M|  21 | 313 | 167k|  18k| 167k| 170k|1630 |  36 | 358 | 1.890000e+02 | 2.120000e+02 |  12.17%
SCIP nodes: 64 Estimation: -1
 time | node  | left  |LP iter|LP it/n| mem |mdpt |frac |vars |cons |cols |rows |cuts |confs|strbr|  dualbound   | primalbound  |  gap   
v4761s|   124 |   121 |700151 |4495.3 |2465M|  81 |   - | 167k|  18k| 167k| 171k|   0 |  36 | 572 | 1.890000e+02 | 2.030000e+02 |   7.41%
SCIP nodes: 128 Estimation: -1
SCIP nodes: 256 Estimation: -1

SCIP Status        : solving was interrupted [time limit reached]
Solving Time (sec) : 7200.02
Solving Nodes      : 423
Primal Bound       : +2.03000000000000e+02 (3 solutions)
Dual Bound         : +1.89000000000000e+02
Gap                : 7.41 %

SCIP> display statistics

SCIP Status        : solving was interrupted [time limit reached]
Total Time         :    7200.64
  solving          :    7200.02
  presolving       :      61.01 (included in solving)
  reading          :       0.62
  copying          :       2.33 (10 #copies) (minimal 0.19, maximal 0.42, average 0.23)
Original Problem   :
  Problem name     : file
  Variables        : 167056 (167056 binary, 0 integer, 0 implicit integer, 0 continuous)
  Constraints      : 169576 initial, 169576 maximal
  Objective        : minimize, 556 non-zeros (abs.min = 1, abs.max = 1)
Presolved Problem  :
  Problem name     : t_file
  Variables        : 167056 (167056 binary, 0 integer, 0 implicit integer, 0 continuous)
  Constraints      : 169577 initial, 169593 maximal
  Objective        : minimize, 556 non-zeros (abs.min = 1, abs.max = 1)
Presolvers         :   ExecTime  SetupTime  Calls  FixedVars   AggrVars   ChgTypes  ChgBounds   AddHoles    DelCons    AddCons   ChgSides   ChgCoefs
  boundshift       :       0.00       0.00      0          0          0          0          0          0          0          0          0          0
  convertinttobin  :       0.00       0.00      0          0          0          0          0          0          0          0          0          0
  domcol           :       0.60       0.00      1          0          0          0          0          0          0          0          0          0
  dualagg          :       0.00       0.00      0          0          0          0          0          0          0          0          0          0
  dualcomp         :       0.00       0.00      0          0          0          0          0          0          0          0          0          0
  dualinfer        :       0.00       0.00      0          0          0          0          0          0          0          0          0          0
  gateextraction   :       0.00       0.00      0          0          0          0          0          0          0          0          0          0
  implics          :       0.01       0.00      2          0          0          0          0          0          0          0          0          0
  inttobinary      :       0.00       0.00      0          0          0          0          0          0          0          0          0          0
  qpkktref         :       0.00       0.00      0          0          0          0          0          0          0          0          0          0
  redvub           :       0.00       0.00      0          0          0          0          0          0          0          0          0          0
  sparsify         :       0.51       0.00      1          0          0          0          0          0          0          0          0          0
  stuffing         :       0.00       0.00      0          0          0          0          0          0          0          0          0          0
  symbreak         :       0.00       0.00      0          0          0          0          0          0          0          0          0          0
  symmetry         :       0.00       0.00      0          0          0          0          0          0          0          0          0          0
  trivial          :       0.02       0.00      2          0          0          0          0          0          0          0          0          0
  tworowbnd        :       0.00       0.00      0          0          0          0          0          0          0          0          0          0
  dualfix          :       0.01       0.00      2          0          0          0          0          0          0          0          0          0
  genvbounds       :       0.00       0.00      0          0          0          0          0          0          0          0          0          0
  orbitalfixing    :       0.00       0.00      0          0          0          0          0          0          0          0          0          0
  probing          :      55.67       0.01      1          0          0          0          0          0          0          0          0          0
  pseudoobj        :       0.00       0.00      0          0          0          0          0          0          0          0          0          0
  vbounds          :       0.24       0.00      1          0          0          0          0          0          0          0          0          0
  knapsack         :       0.81       0.01      3          0          0          0          0          0          1          2          2        248
  setppc           :       0.46       0.02      3          0          0          0          0          0          0          0          0          0
  linear           :       2.11       0.13      2          0          0          0          0          0          0          0          0          0
  logicor          :       0.00       0.00      0          0          0          0          0          0          0          0          0          0
  benders          :       0.00       0.00      0          0          0          0          0          0          0          0          0          0
  components       :       0.12       0.00      1          0          0          0          0          0          0          0          0          0
  root node        :          -          -      -     106142          -          -     106142          -          -          -          -          -
Constraints        :     Number  MaxNumber  #Separate #Propagate    #EnfoLP    #EnfoRelax  #EnfoPS    #Check   #ResProp    Cutoffs    DomReds       Cuts    Applied      Conss   Children
  benderslp        :          0          0          0          0        428          0          0        113          0          0          0          0          0          0          0
  integral         :          0          0          0          0        428          0          0        113          0          0      35435          0          0         93        824
  knapsack         :        555+       557         11     256407          0          0          0        108     102275          3     197825       2206       1049          0          0
  setppc           :     169022+    169025         11     256577          0          0          0          5      32461         15      71429          0          0          0          0
  logicor          :          0+       130         11        245          0          0          0          0         11          1          8          0          0          0          0
  benders          :          0          0          0          0          0          0          0          4          0          0          0          0          0          0          0
  countsols        :          0          0          0          0          0          0          0          4          0          0          0          0          0          0          0
  components       :          0          0          0          0          0          0          0          0          0          0          0          0          0          0          0
Constraint Timings :  TotalTime  SetupTime   Separate  Propagate     EnfoLP     EnfoPS     EnfoRelax   Check    ResProp    SB-Prop
  benderslp        :       0.00       0.00       0.00       0.00       0.00       0.00       0.00       0.00       0.00       0.00
  integral         :    1860.53       0.00       0.00       0.00    1860.47       0.00       0.00       0.06       0.00       0.00
  knapsack         :       3.55       0.01       0.14       2.05       0.00       0.00       0.00       0.04       0.18       1.13
  setppc           :      12.65       0.02       0.18      11.76       0.00       0.00       0.00       0.07       0.02       0.60
  logicor          :       0.00       0.00       0.00       0.00       0.00       0.00       0.00       0.00       0.00       0.00
  benders          :       0.00       0.00       0.00       0.00       0.00       0.00       0.00       0.00       0.00       0.00
  countsols        :       0.00       0.00       0.00       0.00       0.00       0.00       0.00       0.00       0.00       0.00
  components       :       0.08       0.00       0.00       0.08       0.00       0.00       0.00       0.00       0.00       0.00
Propagators        : #Propagate   #ResProp    Cutoffs    DomReds
  dualfix          :          3          0          0          0
  genvbounds       :          0          0          0          0
  nlobbt           :          0          0          0          0
  obbt             :          0          0          0          0
  orbitalfixing    :        484          0          0         28
  probing          :          0          0          0          0
  pseudoobj        :       1840          0          0        646
  redcost          :        173          0          0         14
  rootredcost      :          3          0          0          0
  vbounds          :     254009          0          0          0
Propagator Timings :  TotalTime  SetupTime   Presolve  Propagate    ResProp    SB-Prop
  dualfix          :       0.02       0.00       0.01       0.01       0.00       0.00
  genvbounds       :       0.14       0.00       0.00       0.12       0.00       0.02
  nlobbt           :       0.00       0.00       0.00       0.00       0.00       0.00
  obbt             :       0.00       0.00       0.00       0.00       0.00       0.00
  orbitalfixing    :       4.22       0.00       0.00       4.22       0.00       0.00
  probing          :      55.68       0.01      55.67       0.00       0.00       0.00
  pseudoobj        :       5.41       0.00       0.00       5.41       0.00       0.00
  redcost          :       1.46       0.00       0.00       1.46       0.00       0.00
  rootredcost      :       0.13       0.00       0.00       0.12       0.00       0.01
  vbounds          :       0.62       0.00       0.24       0.37       0.00       0.01
Orbital fixing     :
  vars fixed to 0  :         28
  vars fixed to 1  :          0
Conflict Analysis  :       Time      Calls    Success    DomReds  Conflicts   Literals    Reconvs ReconvLits   Dualrays   Nonzeros   LP Iters   (pool size: [10000,10000])
  propagation      :       0.00         19         19          -         26      387.8          0        0.0          -          -          -
  infeasible LP    :       0.50         14          7          -        303      970.8          0        0.0          2      248.5          0
  bound exceed. LP :       8.85         18         16          -       1211     7388.6          0        0.0          3      916.7        160
  strong branching :       0.00          0          0          -          0        0.0          0        0.0          -          -          0
  pseudo solution  :       0.00          0          0          -          0        0.0          0        0.0          -          -          -
  applied globally :       0.03          -          -          0        218     1383.3          -          -          5          -          -
  applied locally  :          -          -          -          0          0        0.0          -          -          0          -          -
Separators         :   ExecTime  SetupTime      Calls    Cutoffs    DomReds       Cuts    Applied      Conss
  cut pool         :       4.87                   198          -          -       4488          -          -    (maximal pool size: 5132)
  aggregation      :       7.48       0.00         73          0          0          0          0          0
  cgmip            :       0.00       0.00          0          0          0          0          0          0
  clique           :       7.38       0.00         11          0          0          0         82          0
  closecuts        :       0.00       0.00          0          0          0          0          0          0
  cmir             :       0.00       0.00          0          0          0          0          0          0
  convexproj       :       0.00       0.00          0          0          0          0          0          0
  disjunctive      :       0.00       0.00          0          0          0          0          0          0
  eccuts           :       0.00       0.00          0          0          0          0          0          0
  flowcover        :       0.00       0.00          0          0          0          0          0          0
  gauge            :       0.00       0.00          0          0          0          0          0          0
  gomory           :     493.70       0.00         70          0          0        279       1256          0
  impliedbounds    :       1.27       0.00         73          0       3612          0          0          0
  intobj           :       0.00       0.00          0          0          0          0          0          0
  mcf              :       0.51       0.00          1          0          0          0          0          0
  oddcycle         :       0.00       0.00          0          0          0          0          0          0
  rapidlearning    :       0.00       0.00          0          0          0          0          0          0
  strongcg         :     505.56       0.00         44          0          0        140        125          0
  zerohalf         :       9.05       0.00         71          0          0        541        952          0
Pricers            :   ExecTime  SetupTime      Calls       Vars
  problem variables:       0.00          -          0          0
Branching Rules    :   ExecTime  SetupTime   BranchLP  BranchExt   BranchPS    Cutoffs    DomReds       Cuts      Conss   Children
  allfullstrong    :       0.00       0.00          0          0          0          0          0          0          0          0
  cloud            :       0.00       0.00          0          0          0          0          0          0          0          0
  distribution     :       0.00       0.00          0          0          0          0          0          0          0          0
  fullstrong       :       0.00       0.00          0          0          0          0          0          0          0          0
  inference        :       0.00       0.00          0          0          0          0          0          0          0          0
  leastinf         :       0.00       0.00          0          0          0          0          0          0          0          0
  lookahead        :       0.00       0.00          0          0          0          0          0          0          0          0
  mostinf          :       0.00       0.00          0          0          0          0          0          0          0          0
  multaggr         :       0.00       0.00          0          0          0          0          0          0          0          0
  nodereopt        :       0.00       0.00          0          0          0          0          0          0          0          0
  pscost           :       0.00       0.00          0          0          0          0          0          0          0          0
  random           :       0.00       0.00          0          0          0          0          0          0          0          0
  relpscost        :    1860.47       0.00        428          0          0          0      35435          0         93        824
Primal Heuristics  :   ExecTime  SetupTime      Calls      Found       Best
  LP solutions     :       0.00          -          -          0          0
  relax solutions  :       0.00          -          -          0          0
  pseudo solutions :       0.00          -          -          0          0
  strong branching :       0.07          -          -          0          0
  actconsdiving    :       0.00       0.00          0          0          0
  alns             :       7.41       0.00          3          1          1
  bound            :       0.00       0.00          0          0          0
  clique           :       1.25       0.00          1          1          1
  coefdiving       :      54.93       0.00          3          0          0
  completesol      :       0.00       0.00          0          0          0
  conflictdiving   :       0.00       0.00          0          0          0
  crossover        :       0.62       0.00          1          0          0
  dins             :       0.00       0.00          0          0          0
  distributiondivin:     137.73       0.00          3          0          0
  dualval          :       0.00       0.00          0          0          0
  farkasdiving     :       0.00       0.00          0          0          0
  feaspump         :     311.55       0.00          1          0          0
  fixandinfer      :       0.00       0.00          0          0          0
  fracdiving       :      50.92       0.00          3          0          0
  gins             :       0.07       0.00          0          0          0
  guideddiving     :      19.56       0.00          2          0          0
  indicator        :       0.01       0.00          0          0          0
  intdiving        :       0.00       0.00          0          0          0
  intshifting      :       0.00       0.00          0          0          0
  linesearchdiving :      10.66       0.00          2          0          0
  localbranching   :       0.00       0.00          0          0          0
  locks            :       2.99       0.00          1          0          0
  lpface           :       0.30       0.00          0          0          0
  mpec             :       0.00       0.00          0          0          0
  multistart       :       0.00       0.00          0          0          0
  mutation         :       0.00       0.00          0          0          0
  nlpdiving        :       0.00       0.00          0          0          0
  objpscostdiving  :       8.02       0.00          2          0          0
  octane           :       0.00       0.00          0          0          0
  ofins            :       0.00       0.00          0          0          0
  oneopt           :       0.30       0.00          3          0          0
  proximity        :       0.00       0.00          0          0          0
  pscostdiving     :     109.24       0.00          3          0          0
  randrounding     :       1.33       0.00        112          0          0
  rens             :       1.09       0.00          1          0          0
  reoptsols        :       0.00       0.00          0          0          0
  repair           :       0.00       0.00          0          0          0
  rins             :       3.29       0.00          5          0          0
  rootsoldiving    :      99.84       0.00          2          0          0
  rounding         :       1.68       0.00        287          0          0
  shiftandpropagate:       0.00       0.00          0          0          0
  shifting         :       4.80       0.00        114          0          0
  simplerounding   :       0.02       0.00        546          0          0
  subnlp           :       0.00       0.00          0          0          0
  trivial          :       0.30       0.00          2          0          0
  trivialnegation  :       0.00       0.00          0          0          0
  trysol           :       0.00       0.00          0          0          0
  twoopt           :       0.00       0.00          0          0          0
  undercover       :       0.00       0.00          0          0          0
  vbounds          :       3.83       0.00          1          0          0
  veclendiving     :      24.78       0.00          3          1          1
  zeroobj          :       0.00       0.00          0          0          0
  zirounding       :       2.06       0.00        412          0          0
  other solutions  :          -          -          -          0          -
Diving Statistics  :      Calls      Nodes   LP Iters Backtracks  Conflicts   MinDepth   MaxDepth   AvgDepth  RoundSols  NLeafSols  MinSolDpt  MaxSolDpt  AvgSolDpt
  actconsdiving    :          0          -          -          -          -          -          -          -          -          -          -          -          -
  coefdiving       :          3       2564      25257          0          0        597       1144      893.7          0          -          -          -          -
  conflictdiving   :          0          -          -          -          -          -          -          -          -          -          -          -          -
  distributiondivin:          3       1798     139852          1        293        195        916      663.0          0          -          -          -          -
  farkasdiving     :          0          -          -          -          -          -          -          -          -          -          -          -          -
  fracdiving       :          3       1162      39559          0        337        379        492      437.3          0          -          -          -          -
  guideddiving     :          2        887       9849          0          0        117        856      486.5          0          -          -          -          -
  linesearchdiving :          2        240      10744          1         91        123        198      160.5          0          -          -          -          -
  pscostdiving     :          3       1967      53612          0          0        344        866      689.3          0          -          -          -          -
  veclendiving     :          3        464      22644          0        194        167        221      201.0          0          1        215        215      215.0
Neighborhoods      :      Calls  SetupTime  SolveTime SolveNodes       Sols       Best       Exp3  EpsGreedy        UCB TgtFixRate  Opt  Inf Node Stal  Sol  Usr Othr Actv
  rens             :          0       0.00       0.00          0          0          0    0.00000   -1.00000    1.00000      0.900    0    0    0    0    0    0    0    1
  rins             :          1       0.43       0.63         50          0          0    0.00000   -1.00000    1.00000      0.900    0    0    0    1    0    0    0    1
  mutation         :          1       0.87       0.45          0          0          0    0.00000   -1.00000    1.00000      0.700    0    1    0    0    0    0    0    1
  localbranching   :          1       0.35       4.24        168          1          1    0.00000   -1.00000    1.00000      0.900    0    0    0    1    0    0    0    1
  crossover        :          0       0.00       0.00          0          0          0    0.00000   -1.00000    1.00000      0.900    0    0    0    0    0    0    0    1
  proximity        :          0       0.00       0.00          0          0          0    0.00000   -1.00000    1.00000      0.900    0    0    0    0    0    0    0    1
  zeroobjective    :          0       0.00       0.00          0          0          0    0.00000   -1.00000    1.00000      0.900    0    0    0    0    0    0    0    1
  dins             :          0       0.00       0.00          0          0          0    0.00000   -1.00000    1.00000      0.900    0    0    0    0    0    0    0    1
LP                 :       Time      Calls Iterations  Iter/call   Iter/sec  Time-0-It Calls-0-It    ItLimit
  primal LP        :      54.17         42          0       0.00       0.00      54.17         42
  dual LP          :    3299.06        558    1245355    2252.00     377.49       0.10          5
  lex dual LP      :       0.00          0          0       0.00          -
  barrier LP       :       0.00          0          0       0.00          -       0.00          0
  resolve instable :       0.00          0          0       0.00          -
  diving/probing LP:     773.35        951     376397     395.79     486.71
  strong branching :    1800.55       1174     737850     628.49     409.79          -          -        847
    (at root node) :          -         20      18504     925.20          -
  conflict analysis:       5.81         16        160      10.00      27.54
B&B Tree           :
  number of runs   :          1
  nodes            :        423 (412 internal, 11 leaves)
  feasible leaves  :          0
  infeas. leaves   :          6
  objective leaves :          4
  nodes (total)    :        423 (412 internal, 11 leaves)
  nodes left       :        403
  max depth        :         81
  max depth (total):         81
  backtracks       :         24 (5.7%)
  early backtracks :         23 (95.8%)
  nodes exc. ref.  :          0 (0.0%)
  delayed cutoffs  :          0
  repropagations   :         68 (858 domain reductions, 0 cutoffs)
  avg switch length:       3.05
  switching time   :      49.70
Root Node          :
  First LP value   : +1.88250000000000e+02
  First LP Iters   :      30299 (121.30 Iter/sec)
  First LP Time    :     249.79
  Final Dual Bound : +1.88250000000000e+02
  Final Root Iters :     147224
  Root LP Estimate : +1.89485457883746e+02
Solution           :
  Solutions found  :          3 (3 improvements)
  First Solution   : +2.15000000000000e+02   (in run 1, after 1 nodes, 67.64 seconds, depth 388, found by <clique>)
  Gap First Sol.   :   infinite
  Gap Last Sol.    :       7.41 %
  Primal Bound     : +2.03000000000000e+02   (in run 1, after 124 nodes, 4761.24 seconds, depth 215, found by <veclendiving>)
  Dual Bound       : +1.89000000000000e+02
  Gap              :       7.41 %
  Avg. Gap         :      14.26 % (102684.90 primal-dual integral)
  Tree Data        : 825 nodes (422 visited, 412 inner, 10 leaves, 403 open), progress: 0.5000
Tree Estimation    :       estim       value       trend  resolution      smooth
  wbe              :          39           -           -           -           -
  tree profile     :          -1           -           -           -           -
  gap              :          20     0.93103     0.18350           1          19
  progress         :          28     0.50000     0.10545           1          27
  leaf-frequency   :         844     0.03357    -0.00207           1         652
  ssg              :          27     0.47287    -0.12134           1          26
  open-nodes       :         844   264.00000    15.27619           1         503


SCIP> checksol

check best solution
solution is feasible in original problem
Violation          :    absolute    relative
  bounds           : 0.00000e+00 0.00000e+00
  integrality      : 0.00000e+00           -
  LP rows          : 0.00000e+00 0.00000e+00
  constraints      : 0.00000e+00 0.00000e+00

SCIP> write sol /local/tmp/bzfhende-tmpdir/bzfhende.MMMc.279_neos-631710.scip.M6440.enable_treeprofile.sol

written solution information to file </local/tmp/bzfhende-tmpdir/bzfhende.MMMc.279_neos-631710.scip.M640.enable_treeprofile.sol>

SCIP> quit

Disabling tree profile data collection
Read MPS: 1
MIP has 167056 vars and 169576 constraints
Read SOL: 1
Objective value computed by solver: 203

Integrality tolerance: 1/10000
Linear tolerance: 1/10000
Objective tolerance: 1/10000

Check SOL: Integrality 1 Constraints 1 Objective 1
Maximum violations: Integrality 0 Constraints 0 Objective 0
@04 1566520441
-----------------------------
Fr 23. Aug 02:34:01 CEST 2019
-----------------------------

=ready=
